\ENCODING=ISO-8859-1
\Problem name: IloCplex

Minimize
 f: w_0 + w_1 + w_2 + w_3 + w_4 + w_5 + w_6 + w_7 + w_8 + w_9 + w_10
Subject To
 c1:   x_0_0 + x_0_1 + x_0_2 + x_0_3 + x_0_4 + x_0_5 + x_0_6 + x_0_7 + x_0_8
       + x_0_9 + x_0_10  = 1
 c2:   x_1_0 + x_1_1 + x_1_2 + x_1_3 + x_1_4 + x_1_5 + x_1_6 + x_1_7 + x_1_8
       + x_1_9 + x_1_10  = 1
 c3:   x_2_0 + x_2_1 + x_2_2 + x_2_3 + x_2_4 + x_2_5 + x_2_6 + x_2_7 + x_2_8
       + x_2_9 + x_2_10  = 1
 c4:   x_3_0 + x_3_1 + x_3_2 + x_3_3 + x_3_4 + x_3_5 + x_3_6 + x_3_7 + x_3_8
       + x_3_9 + x_3_10  = 1
 c5:   x_4_0 + x_4_1 + x_4_2 + x_4_3 + x_4_4 + x_4_5 + x_4_6 + x_4_7 + x_4_8
       + x_4_9 + x_4_10  = 1
 c6:   x_5_0 + x_5_1 + x_5_2 + x_5_3 + x_5_4 + x_5_5 + x_5_6 + x_5_7 + x_5_8
       + x_5_9 + x_5_10  = 1
 c7:   x_6_0 + x_6_1 + x_6_2 + x_6_3 + x_6_4 + x_6_5 + x_6_6 + x_6_7 + x_6_8
       + x_6_9 + x_6_10  = 1
 c8:   x_7_0 + x_7_1 + x_7_2 + x_7_3 + x_7_4 + x_7_5 + x_7_6 + x_7_7 + x_7_8
       + x_7_9 + x_7_10  = 1
 c9:   x_8_0 + x_8_1 + x_8_2 + x_8_3 + x_8_4 + x_8_5 + x_8_6 + x_8_7 + x_8_8
       + x_8_9 + x_8_10  = 1
 c10:  x_9_0 + x_9_1 + x_9_2 + x_9_3 + x_9_4 + x_9_5 + x_9_6 + x_9_7 + x_9_8
       + x_9_9 + x_9_10  = 1
 c11:  x_10_0 + x_10_1 + x_10_2 + x_10_3 + x_10_4 + x_10_5 + x_10_6 + x_10_7
       + x_10_8 + x_10_9 + x_10_10  = 1
 c12:  x_0_0 + x_1_0 - w_0 <= 0
 c13:  x_0_1 + x_1_1 - w_1 <= 0
 c14:  x_0_2 + x_1_2 - w_2 <= 0
 c15:  x_0_3 + x_1_3 - w_3 <= 0
 c16:  x_0_4 + x_1_4 - w_4 <= 0
 c17:  x_0_5 + x_1_5 - w_5 <= 0
 c18:  x_0_6 + x_1_6 - w_6 <= 0
 c19:  x_0_7 + x_1_7 - w_7 <= 0
 c20:  x_0_8 + x_1_8 - w_8 <= 0
 c21:  x_0_9 + x_1_9 - w_9 <= 0
 c22:  x_0_10 + x_1_10 - w_10 <= 0
 c23:  x_0_0 + x_3_0 - w_0 <= 0
 c24:  x_0_1 + x_3_1 - w_1 <= 0
 c25:  x_0_2 + x_3_2 - w_2 <= 0
 c26:  x_0_3 + x_3_3 - w_3 <= 0
 c27:  x_0_4 + x_3_4 - w_4 <= 0
 c28:  x_0_5 + x_3_5 - w_5 <= 0
 c29:  x_0_6 + x_3_6 - w_6 <= 0
 c30:  x_0_7 + x_3_7 - w_7 <= 0
 c31:  x_0_8 + x_3_8 - w_8 <= 0
 c32:  x_0_9 + x_3_9 - w_9 <= 0
 c33:  x_0_10 + x_3_10 - w_10 <= 0
 c34:  x_0_0 + x_6_0 - w_0 <= 0
 c35:  x_0_1 + x_6_1 - w_1 <= 0
 c36:  x_0_2 + x_6_2 - w_2 <= 0
 c37:  x_0_3 + x_6_3 - w_3 <= 0
 c38:  x_0_4 + x_6_4 - w_4 <= 0
 c39:  x_0_5 + x_6_5 - w_5 <= 0
 c40:  x_0_6 + x_6_6 - w_6 <= 0
 c41:  x_0_7 + x_6_7 - w_7 <= 0
 c42:  x_0_8 + x_6_8 - w_8 <= 0
 c43:  x_0_9 + x_6_9 - w_9 <= 0
 c44:  x_0_10 + x_6_10 - w_10 <= 0
 c45:  x_0_0 + x_8_0 - w_0 <= 0
 c46:  x_0_1 + x_8_1 - w_1 <= 0
 c47:  x_0_2 + x_8_2 - w_2 <= 0
 c48:  x_0_3 + x_8_3 - w_3 <= 0
 c49:  x_0_4 + x_8_4 - w_4 <= 0
 c50:  x_0_5 + x_8_5 - w_5 <= 0
 c51:  x_0_6 + x_8_6 - w_6 <= 0
 c52:  x_0_7 + x_8_7 - w_7 <= 0
 c53:  x_0_8 + x_8_8 - w_8 <= 0
 c54:  x_0_9 + x_8_9 - w_9 <= 0
 c55:  x_0_10 + x_8_10 - w_10 <= 0
 c56:  x_1_0 + x_2_0 - w_0 <= 0
 c57:  x_1_1 + x_2_1 - w_1 <= 0
 c58:  x_1_2 + x_2_2 - w_2 <= 0
 c59:  x_1_3 + x_2_3 - w_3 <= 0
 c60:  x_1_4 + x_2_4 - w_4 <= 0
 c61:  x_1_5 + x_2_5 - w_5 <= 0
 c62:  x_1_6 + x_2_6 - w_6 <= 0
 c63:  x_1_7 + x_2_7 - w_7 <= 0
 c64:  x_1_8 + x_2_8 - w_8 <= 0
 c65:  x_1_9 + x_2_9 - w_9 <= 0
 c66:  x_1_10 + x_2_10 - w_10 <= 0
 c67:  x_1_0 + x_5_0 - w_0 <= 0
 c68:  x_1_1 + x_5_1 - w_1 <= 0
 c69:  x_1_2 + x_5_2 - w_2 <= 0
 c70:  x_1_3 + x_5_3 - w_3 <= 0
 c71:  x_1_4 + x_5_4 - w_4 <= 0
 c72:  x_1_5 + x_5_5 - w_5 <= 0
 c73:  x_1_6 + x_5_6 - w_6 <= 0
 c74:  x_1_7 + x_5_7 - w_7 <= 0
 c75:  x_1_8 + x_5_8 - w_8 <= 0
 c76:  x_1_9 + x_5_9 - w_9 <= 0
 c77:  x_1_10 + x_5_10 - w_10 <= 0
 c78:  x_1_0 + x_7_0 - w_0 <= 0
 c79:  x_1_1 + x_7_1 - w_1 <= 0
 c80:  x_1_2 + x_7_2 - w_2 <= 0
 c81:  x_1_3 + x_7_3 - w_3 <= 0
 c82:  x_1_4 + x_7_4 - w_4 <= 0
 c83:  x_1_5 + x_7_5 - w_5 <= 0
 c84:  x_1_6 + x_7_6 - w_6 <= 0
 c85:  x_1_7 + x_7_7 - w_7 <= 0
 c86:  x_1_8 + x_7_8 - w_8 <= 0
 c87:  x_1_9 + x_7_9 - w_9 <= 0
 c88:  x_1_10 + x_7_10 - w_10 <= 0
 c89:  x_2_0 + x_4_0 - w_0 <= 0
 c90:  x_2_1 + x_4_1 - w_1 <= 0
 c91:  x_2_2 + x_4_2 - w_2 <= 0
 c92:  x_2_3 + x_4_3 - w_3 <= 0
 c93:  x_2_4 + x_4_4 - w_4 <= 0
 c94:  x_2_5 + x_4_5 - w_5 <= 0
 c95:  x_2_6 + x_4_6 - w_6 <= 0
 c96:  x_2_7 + x_4_7 - w_7 <= 0
 c97:  x_2_8 + x_4_8 - w_8 <= 0
 c98:  x_2_9 + x_4_9 - w_9 <= 0
 c99:  x_2_10 + x_4_10 - w_10 <= 0
 c100: x_2_0 + x_6_0 - w_0 <= 0
 c101: x_2_1 + x_6_1 - w_1 <= 0
 c102: x_2_2 + x_6_2 - w_2 <= 0
 c103: x_2_3 + x_6_3 - w_3 <= 0
 c104: x_2_4 + x_6_4 - w_4 <= 0
 c105: x_2_5 + x_6_5 - w_5 <= 0
 c106: x_2_6 + x_6_6 - w_6 <= 0
 c107: x_2_7 + x_6_7 - w_7 <= 0
 c108: x_2_8 + x_6_8 - w_8 <= 0
 c109: x_2_9 + x_6_9 - w_9 <= 0
 c110: x_2_10 + x_6_10 - w_10 <= 0
 c111: x_2_0 + x_9_0 - w_0 <= 0
 c112: x_2_1 + x_9_1 - w_1 <= 0
 c113: x_2_2 + x_9_2 - w_2 <= 0
 c114: x_2_3 + x_9_3 - w_3 <= 0
 c115: x_2_4 + x_9_4 - w_4 <= 0
 c116: x_2_5 + x_9_5 - w_5 <= 0
 c117: x_2_6 + x_9_6 - w_6 <= 0
 c118: x_2_7 + x_9_7 - w_7 <= 0
 c119: x_2_8 + x_9_8 - w_8 <= 0
 c120: x_2_9 + x_9_9 - w_9 <= 0
 c121: x_2_10 + x_9_10 - w_10 <= 0
 c122: x_3_0 + x_4_0 - w_0 <= 0
 c123: x_3_1 + x_4_1 - w_1 <= 0
 c124: x_3_2 + x_4_2 - w_2 <= 0
 c125: x_3_3 + x_4_3 - w_3 <= 0
 c126: x_3_4 + x_4_4 - w_4 <= 0
 c127: x_3_5 + x_4_5 - w_5 <= 0
 c128: x_3_6 + x_4_6 - w_6 <= 0
 c129: x_3_7 + x_4_7 - w_7 <= 0
 c130: x_3_8 + x_4_8 - w_8 <= 0
 c131: x_3_9 + x_4_9 - w_9 <= 0
 c132: x_3_10 + x_4_10 - w_10 <= 0
 c133: x_3_0 + x_5_0 - w_0 <= 0
 c134: x_3_1 + x_5_1 - w_1 <= 0
 c135: x_3_2 + x_5_2 - w_2 <= 0
 c136: x_3_3 + x_5_3 - w_3 <= 0
 c137: x_3_4 + x_5_4 - w_4 <= 0
 c138: x_3_5 + x_5_5 - w_5 <= 0
 c139: x_3_6 + x_5_6 - w_6 <= 0
 c140: x_3_7 + x_5_7 - w_7 <= 0
 c141: x_3_8 + x_5_8 - w_8 <= 0
 c142: x_3_9 + x_5_9 - w_9 <= 0
 c143: x_3_10 + x_5_10 - w_10 <= 0
 c144: x_3_0 + x_9_0 - w_0 <= 0
 c145: x_3_1 + x_9_1 - w_1 <= 0
 c146: x_3_2 + x_9_2 - w_2 <= 0
 c147: x_3_3 + x_9_3 - w_3 <= 0
 c148: x_3_4 + x_9_4 - w_4 <= 0
 c149: x_3_5 + x_9_5 - w_5 <= 0
 c150: x_3_6 + x_9_6 - w_6 <= 0
 c151: x_3_7 + x_9_7 - w_7 <= 0
 c152: x_3_8 + x_9_8 - w_8 <= 0
 c153: x_3_9 + x_9_9 - w_9 <= 0
 c154: x_3_10 + x_9_10 - w_10 <= 0
 c155: x_4_0 + x_7_0 - w_0 <= 0
 c156: x_4_1 + x_7_1 - w_1 <= 0
 c157: x_4_2 + x_7_2 - w_2 <= 0
 c158: x_4_3 + x_7_3 - w_3 <= 0
 c159: x_4_4 + x_7_4 - w_4 <= 0
 c160: x_4_5 + x_7_5 - w_5 <= 0
 c161: x_4_6 + x_7_6 - w_6 <= 0
 c162: x_4_7 + x_7_7 - w_7 <= 0
 c163: x_4_8 + x_7_8 - w_8 <= 0
 c164: x_4_9 + x_7_9 - w_9 <= 0
 c165: x_4_10 + x_7_10 - w_10 <= 0
 c166: x_4_0 + x_8_0 - w_0 <= 0
 c167: x_4_1 + x_8_1 - w_1 <= 0
 c168: x_4_2 + x_8_2 - w_2 <= 0
 c169: x_4_3 + x_8_3 - w_3 <= 0
 c170: x_4_4 + x_8_4 - w_4 <= 0
 c171: x_4_5 + x_8_5 - w_5 <= 0
 c172: x_4_6 + x_8_6 - w_6 <= 0
 c173: x_4_7 + x_8_7 - w_7 <= 0
 c174: x_4_8 + x_8_8 - w_8 <= 0
 c175: x_4_9 + x_8_9 - w_9 <= 0
 c176: x_4_10 + x_8_10 - w_10 <= 0
 c177: x_5_0 + x_10_0 - w_0 <= 0
 c178: x_5_1 + x_10_1 - w_1 <= 0
 c179: x_5_2 + x_10_2 - w_2 <= 0
 c180: x_5_3 + x_10_3 - w_3 <= 0
 c181: x_5_4 + x_10_4 - w_4 <= 0
 c182: x_5_5 + x_10_5 - w_5 <= 0
 c183: x_5_6 + x_10_6 - w_6 <= 0
 c184: x_5_7 + x_10_7 - w_7 <= 0
 c185: x_5_8 + x_10_8 - w_8 <= 0
 c186: x_5_9 + x_10_9 - w_9 <= 0
 c187: x_5_10 + x_10_10 - w_10 <= 0
 c188: x_6_0 + x_10_0 - w_0 <= 0
 c189: x_6_1 + x_10_1 - w_1 <= 0
 c190: x_6_2 + x_10_2 - w_2 <= 0
 c191: x_6_3 + x_10_3 - w_3 <= 0
 c192: x_6_4 + x_10_4 - w_4 <= 0
 c193: x_6_5 + x_10_5 - w_5 <= 0
 c194: x_6_6 + x_10_6 - w_6 <= 0
 c195: x_6_7 + x_10_7 - w_7 <= 0
 c196: x_6_8 + x_10_8 - w_8 <= 0
 c197: x_6_9 + x_10_9 - w_9 <= 0
 c198: x_6_10 + x_10_10 - w_10 <= 0
 c199: x_7_0 + x_10_0 - w_0 <= 0
 c200: x_7_1 + x_10_1 - w_1 <= 0
 c201: x_7_2 + x_10_2 - w_2 <= 0
 c202: x_7_3 + x_10_3 - w_3 <= 0
 c203: x_7_4 + x_10_4 - w_4 <= 0
 c204: x_7_5 + x_10_5 - w_5 <= 0
 c205: x_7_6 + x_10_6 - w_6 <= 0
 c206: x_7_7 + x_10_7 - w_7 <= 0
 c207: x_7_8 + x_10_8 - w_8 <= 0
 c208: x_7_9 + x_10_9 - w_9 <= 0
 c209: x_7_10 + x_10_10 - w_10 <= 0
 c210: x_8_0 + x_10_0 - w_0 <= 0
 c211: x_8_1 + x_10_1 - w_1 <= 0
 c212: x_8_2 + x_10_2 - w_2 <= 0
 c213: x_8_3 + x_10_3 - w_3 <= 0
 c214: x_8_4 + x_10_4 - w_4 <= 0
 c215: x_8_5 + x_10_5 - w_5 <= 0
 c216: x_8_6 + x_10_6 - w_6 <= 0
 c217: x_8_7 + x_10_7 - w_7 <= 0
 c218: x_8_8 + x_10_8 - w_8 <= 0
 c219: x_8_9 + x_10_9 - w_9 <= 0
 c220: x_8_10 + x_10_10 - w_10 <= 0
 c221: x_9_0 + x_10_0 - w_0 <= 0
 c222: x_9_1 + x_10_1 - w_1 <= 0
 c223: x_9_2 + x_10_2 - w_2 <= 0
 c224: x_9_3 + x_10_3 - w_3 <= 0
 c225: x_9_4 + x_10_4 - w_4 <= 0
 c226: x_9_5 + x_10_5 - w_5 <= 0
 c227: x_9_6 + x_10_6 - w_6 <= 0
 c228: x_9_7 + x_10_7 - w_7 <= 0
 c229: x_9_8 + x_10_8 - w_8 <= 0
 c230: x_9_9 + x_10_9 - w_9 <= 0
 c231: x_9_10 + x_10_10 - w_10 <= 0
 c232: w_0 - w_1 >= 0
 c233: w_1 - w_2 >= 0
 c234: w_2 - w_3 >= 0
 c235: w_3 - w_4 >= 0
 c236: w_4 - w_5 >= 0
 c237: w_5 - w_6 >= 0
 c238: w_6 - w_7 >= 0
 c239: w_7 - w_8 >= 0
 c240: w_8 - w_9 >= 0
 c241: w_9 - w_10 >= 0
 c242: - x_0_0 - x_1_0 - x_2_0 - x_3_0 - x_4_0 - x_5_0 - x_6_0 - x_7_0 - x_8_0
       - x_9_0 - x_10_0 + w_0 <= 0
 c243: - x_0_1 - x_1_1 - x_2_1 - x_3_1 - x_4_1 - x_5_1 - x_6_1 - x_7_1 - x_8_1
       - x_9_1 - x_10_1 + w_1 <= 0
 c244: - x_0_2 - x_1_2 - x_2_2 - x_3_2 - x_4_2 - x_5_2 - x_6_2 - x_7_2 - x_8_2
       - x_9_2 - x_10_2 + w_2 <= 0
 c245: - x_0_3 - x_1_3 - x_2_3 - x_3_3 - x_4_3 - x_5_3 - x_6_3 - x_7_3 - x_8_3
       - x_9_3 - x_10_3 + w_3 <= 0
 c246: - x_0_4 - x_1_4 - x_2_4 - x_3_4 - x_4_4 - x_5_4 - x_6_4 - x_7_4 - x_8_4
       - x_9_4 - x_10_4 + w_4 <= 0
 c247: - x_0_5 - x_1_5 - x_2_5 - x_3_5 - x_4_5 - x_5_5 - x_6_5 - x_7_5 - x_8_5
       - x_9_5 - x_10_5 + w_5 <= 0
 c248: - x_0_6 - x_1_6 - x_2_6 - x_3_6 - x_4_6 - x_5_6 - x_6_6 - x_7_6 - x_8_6
       - x_9_6 - x_10_6 + w_6 <= 0
 c249: - x_0_7 - x_1_7 - x_2_7 - x_3_7 - x_4_7 - x_5_7 - x_6_7 - x_7_7 - x_8_7
       - x_9_7 - x_10_7 + w_7 <= 0
 c250: - x_0_8 - x_1_8 - x_2_8 - x_3_8 - x_4_8 - x_5_8 - x_6_8 - x_7_8 - x_8_8
       - x_9_8 - x_10_8 + w_8 <= 0
 c251: - x_0_9 - x_1_9 - x_2_9 - x_3_9 - x_4_9 - x_5_9 - x_6_9 - x_7_9 - x_8_9
       - x_9_9 - x_10_9 + w_9 <= 0
 c252: - x_0_10 - x_1_10 - x_2_10 - x_3_10 - x_4_10 - x_5_10 - x_6_10 - x_7_10
       - x_8_10 - x_9_10 - x_10_10 + w_10 <= 0
Bounds
 0 <= x_0_0 <= 1
 0 <= x_0_1 <= 1
 0 <= x_0_2 <= 1
 0 <= x_0_3 <= 1
 0 <= x_0_4 <= 1
 0 <= x_0_5 <= 1
 0 <= x_0_6 <= 1
 0 <= x_0_7 <= 1
 0 <= x_0_8 <= 1
 0 <= x_0_9 <= 1
 0 <= x_0_10 <= 1
 0 <= x_1_0 <= 1
 0 <= x_1_1 <= 1
 0 <= x_1_2 <= 1
 0 <= x_1_3 <= 1
 0 <= x_1_4 <= 1
 0 <= x_1_5 <= 1
 0 <= x_1_6 <= 1
 0 <= x_1_7 <= 1
 0 <= x_1_8 <= 1
 0 <= x_1_9 <= 1
 0 <= x_1_10 <= 1
 0 <= x_2_0 <= 1
 0 <= x_2_1 <= 1
 0 <= x_2_2 <= 1
 0 <= x_2_3 <= 1
 0 <= x_2_4 <= 1
 0 <= x_2_5 <= 1
 0 <= x_2_6 <= 1
 0 <= x_2_7 <= 1
 0 <= x_2_8 <= 1
 0 <= x_2_9 <= 1
 0 <= x_2_10 <= 1
 0 <= x_3_0 <= 1
 0 <= x_3_1 <= 1
 0 <= x_3_2 <= 1
 0 <= x_3_3 <= 1
 0 <= x_3_4 <= 1
 0 <= x_3_5 <= 1
 0 <= x_3_6 <= 1
 0 <= x_3_7 <= 1
 0 <= x_3_8 <= 1
 0 <= x_3_9 <= 1
 0 <= x_3_10 <= 1
 0 <= x_4_0 <= 1
 0 <= x_4_1 <= 1
 0 <= x_4_2 <= 1
 0 <= x_4_3 <= 1
 0 <= x_4_4 <= 1
 0 <= x_4_5 <= 1
 0 <= x_4_6 <= 1
 0 <= x_4_7 <= 1
 0 <= x_4_8 <= 1
 0 <= x_4_9 <= 1
 0 <= x_4_10 <= 1
 0 <= x_5_0 <= 1
 0 <= x_5_1 <= 1
 0 <= x_5_2 <= 1
 0 <= x_5_3 <= 1
 0 <= x_5_4 <= 1
 0 <= x_5_5 <= 1
 0 <= x_5_6 <= 1
 0 <= x_5_7 <= 1
 0 <= x_5_8 <= 1
 0 <= x_5_9 <= 1
 0 <= x_5_10 <= 1
 0 <= x_6_0 <= 1
 0 <= x_6_1 <= 1
 0 <= x_6_2 <= 1
 0 <= x_6_3 <= 1
 0 <= x_6_4 <= 1
 0 <= x_6_5 <= 1
 0 <= x_6_6 <= 1
 0 <= x_6_7 <= 1
 0 <= x_6_8 <= 1
 0 <= x_6_9 <= 1
 0 <= x_6_10 <= 1
 0 <= x_7_0 <= 1
 0 <= x_7_1 <= 1
 0 <= x_7_2 <= 1
 0 <= x_7_3 <= 1
 0 <= x_7_4 <= 1
 0 <= x_7_5 <= 1
 0 <= x_7_6 <= 1
 0 <= x_7_7 <= 1
 0 <= x_7_8 <= 1
 0 <= x_7_9 <= 1
 0 <= x_7_10 <= 1
 0 <= x_8_0 <= 1
 0 <= x_8_1 <= 1
 0 <= x_8_2 <= 1
 0 <= x_8_3 <= 1
 0 <= x_8_4 <= 1
 0 <= x_8_5 <= 1
 0 <= x_8_6 <= 1
 0 <= x_8_7 <= 1
 0 <= x_8_8 <= 1
 0 <= x_8_9 <= 1
 0 <= x_8_10 <= 1
 0 <= x_9_0 <= 1
 0 <= x_9_1 <= 1
 0 <= x_9_2 <= 1
 0 <= x_9_3 <= 1
 0 <= x_9_4 <= 1
 0 <= x_9_5 <= 1
 0 <= x_9_6 <= 1
 0 <= x_9_7 <= 1
 0 <= x_9_8 <= 1
 0 <= x_9_9 <= 1
 0 <= x_9_10 <= 1
 0 <= x_10_0 <= 1
 0 <= x_10_1 <= 1
 0 <= x_10_2 <= 1
 0 <= x_10_3 <= 1
 0 <= x_10_4 <= 1
 0 <= x_10_5 <= 1
 0 <= x_10_6 <= 1
 0 <= x_10_7 <= 1
 0 <= x_10_8 <= 1
 0 <= x_10_9 <= 1
 0 <= x_10_10 <= 1
 0 <= w_0 <= 1
 0 <= w_1 <= 1
 0 <= w_2 <= 1
 0 <= w_3 <= 1
 0 <= w_4 <= 1
 0 <= w_5 <= 1
 0 <= w_6 <= 1
 0 <= w_7 <= 1
 0 <= w_8 <= 1
 0 <= w_9 <= 1
 0 <= w_10 <= 1
Binaries
 x_0_0  x_0_1  x_0_2  x_0_3  x_0_4  x_0_5  x_0_6  x_0_7  x_0_8  x_0_9  x_0_10 
 x_1_0  x_1_1  x_1_2  x_1_3  x_1_4  x_1_5  x_1_6  x_1_7  x_1_8  x_1_9  x_1_10 
 x_2_0  x_2_1  x_2_2  x_2_3  x_2_4  x_2_5  x_2_6  x_2_7  x_2_8  x_2_9  x_2_10 
 x_3_0  x_3_1  x_3_2  x_3_3  x_3_4  x_3_5  x_3_6  x_3_7  x_3_8  x_3_9  x_3_10 
 x_4_0  x_4_1  x_4_2  x_4_3  x_4_4  x_4_5  x_4_6  x_4_7  x_4_8  x_4_9  x_4_10 
 x_5_0  x_5_1  x_5_2  x_5_3  x_5_4  x_5_5  x_5_6  x_5_7  x_5_8  x_5_9  x_5_10 
 x_6_0  x_6_1  x_6_2  x_6_3  x_6_4  x_6_5  x_6_6  x_6_7  x_6_8  x_6_9  x_6_10 
 x_7_0  x_7_1  x_7_2  x_7_3  x_7_4  x_7_5  x_7_6  x_7_7  x_7_8  x_7_9  x_7_10 
 x_8_0  x_8_1  x_8_2  x_8_3  x_8_4  x_8_5  x_8_6  x_8_7  x_8_8  x_8_9  x_8_10 
 x_9_0  x_9_1  x_9_2  x_9_3  x_9_4  x_9_5  x_9_6  x_9_7  x_9_8  x_9_9  x_9_10 
 x_10_0  x_10_1  x_10_2  x_10_3  x_10_4  x_10_5  x_10_6  x_10_7  x_10_8 
 x_10_9  x_10_10  w_0  w_1  w_2  w_3  w_4  w_5  w_6  w_7  w_8  w_9  w_10 
End
